experimental-results/original-data/fig4/urquhart-simon-03-03.cnf
c Random Instance of Urquhart's Problem for SAT (size=3 randomSeed=3).
c Like Hole, this problem as been proved to be exponential for resolution.
c N.B. : instance is unsatisfiable by construction.
c 
c Come from the paper 'Hard Examples for Resolution'.
c        Source : Laurent Simon, simon@lri.fr. May 1999.
c 
c n=3, so there is m^2=9 vertices in each part of the bipartite graph. 
c Bases creations : 
c   - a '1' charge is 'there must be an even number of negated vars'
c   - edges contains variables from which all subbases are constructed.
c vertex A0 :(charge=0), (edges=[5,8,22,20])
c vertex A1 :(charge=1), (edges=[25,43,28,13,18,20,34])
c vertex A2 :(charge=0), (edges=[24,40,34,1])
c vertex A3 :(charge=0), (edges=[19,14,21,39,1,32])
c vertex A4 :(charge=1), (edges=[46,4,15,36,32,47])
c vertex A5 :(charge=0), (edges=[2,37,7,47,38])
c vertex A6 :(charge=0), (edges=[11,23,29,38,35])
c vertex A7 :(charge=0), (edges=[17,45,9,42,30,35,44])
c vertex A8 :(charge=1), (edges=[10,26,44])
c vertex B0 :(charge=0), (edges=[25,21,31])
c vertex B1 :(charge=0), (edges=[24,8,36,31,41])
c vertex B2 :(charge=0), (edges=[19,40,30,41,6])
c vertex B3 :(charge=1), (edges=[2,9,6,33])
c vertex B4 :(charge=1), (edges=[17,22,43,14,4,33,3])
c vertex B5 :(charge=0), (edges=[5,13,39,15,37,3,27])
c vertex B6 :(charge=1), (edges=[11,27,16])
c vertex B7 :(charge=0), (edges=[10,28,7,23,45,16,12])
c vertex B8 :(charge=1), (edges=[46,18,29,42,26,12])
c 
p cnf 47 516
5 8 22 -20 0
5 8 -22 20 0
5 -8 22 20 0
5 -8 -22 -20 0
-5 8 22 20 0
-5 8 -22 -20 0
-5 -8 22 -20 0
-5 -8 -22 20 0
25 43 28 13 18 20 34 0
25 43 28 13 18 -20 -34 0
25 43 28 13 -18 20 -34 0
25 43 28 13 -18 -20 34 0
25 43 28 -13 18 20 -34 0
25 43 28 -13 18 -20 34 0
25 43 28 -13 -18 20 34 0
25 43 28 -13 -18 -20 -34 0
25 43 -28 13 18 20 -34 0
25 43 -28 13 18 -20 34 0
25 43 -28 13 -18 20 34 0
25 43 -28 13 -18 -20 -34 0
25 43 -28 -13 18 20 34 0
25 43 -28 -13 18 -20 -34 0
25 43 -28 -13 -18 20 -34 0
25 43 -28 -13 -18 -20 34 0
25 -43 28 13 18 20 -34 0
25 -43 28 13 18 -20 34 0
25 -43 28 13 -18 20 34 0
25 -43 28 13 -18 -20 -34 0
25 -43 28 -13 18 20 34 0
25 -43 28 -13 18 -20 -34 0
25 -43 28 -13 -18 20 -34 0
25 -43 28 -13 -18 -20 34 0
25 -43 -28 13 18 20 34 0
25 -43 -28 13 18 -20 -34 0
25 -43 -28 13 -18 20 -34 0
25 -43 -28 13 -18 -20 34 0
25 -43 -28 -13 18 20 -34 0
25 -43 -28 -13 18 -20 34 0
25 -43 -28 -13 -18 20 34 0
25 -43 -28 -13 -18 -20 -34 0
-25 43 28 13 18 20 -34 0
-25 43 28 13 18 -20 34 0
-25 43 28 13 -18 20 34 0
-25 43 28 13 -18 -20 -34 0
-25 43 28 -13 18 20 34 0
-25 43 28 -13 18 -20 -34 0
-25 43 28 -13 -18 20 -34 0
-25 43 28 -13 -18 -20 34 0
-25 43 -28 13 18 20 34 0
-25 43 -28 13 18 -20 -34 0
-25 43 -28 13 -18 20 -34 0
-25 43 -28 13 -18 -20 34 0
-25 43 -28 -13 18 20 -34 0
-25 43 -28 -13 18 -20 34 0
-25 43 -28 -13 -18 20 34 0
-25 43 -28 -13 -18 -20 -34 0
-25 -43 28 13 18 20 34 0
-25 -43 28 13 18 -20 -34 0
-25 -43 28 13 -18 20 -34 0
-25 -43 28 13 -18 -20 34 0
-25 -43 28 -13 18 20 -34 0
-25 -43 28 -13 18 -20 34 0
-25 -43 28 -13 -18 20 34 0
-25 -43 28 -13 -18 -20 -34 0
-25 -43 -28 13 18 20 -34 0
-25 -43 -28 13 18 -20 34 0
-25 -43 -28 13 -18 20 34 0
-25 -43 -28 13 -18 -20 -34 0
-25 -43 -28 -13 18 20 34 0
-25 -43 -28 -13 18 -20 -34 0
-25 -43 -28 -13 -18 20 -34 0
-25 -43 -28 -13 -18 -20 34 0
24 40 34 -1 0
24 40 -34 1 0
24 -40 34 1 0
24 -40 -34 -1 0
-24 40 34 1 0
-24 40 -34 -1 0
-24 -40 34 -1 0
-24 -40 -34 1 0
19 14 21 39 1 -32 0
19 14 21 39 -1 32 0
19 14 21 -39 1 32 0
19 14 21 -39 -1 -32 0
19 14 -21 39 1 32 0
19 14 -21 39 -1 -32 0
19 14 -21 -39 1 -32 0
19 14 -21 -39 -1 32 0
19 -14 21 39 1 32 0
19 -14 21 39 -1 -32 0
19 -14 21 -39 1 -32 0
19 -14 21 -39 -1 32 0
19 -14 -21 39 1 -32 0
19 -14 -21 39 -1 32 0
19 -14 -21 -39 1 32 0
19 -14 -21 -39 -1 -32 0
-19 14 21 39 1 32 0
-19 14 21 39 -1 -32 0
-19 14 21 -39 1 -32 0
-19 14 21 -39 -1 32 0
-19 14 -21 39 1 -32 0
-19 14 -21 39 -1 32 0
-19 14 -21 -39 1 32 0
-19 14 -21 -39 -1 -32 0
-19 -14 21 39 1 -32 0
-19 -14 21 39 -1 32 0
-19 -14 21 -39 1 32 0
-19 -14 21 -39 -1 -32 0
-19 -14 -21 39 1 32 0
-19 -14 -21 39 -1 -32 0
-19 -14 -21 -39 1 -32 0
-19 -14 -21 -39 -1 32 0
46 4 15 36 32 47 0
46 4 15 36 -32 -47 0
46 4 15 -36 32 -47 0
46 4 15 -36 -32 47 0
46 4 -15 36 32 -47 0
46 4 -15 36 -32 47 0
46 4 -15 -36 32 47 0
46 4 -15 -36 -32 -47 0
46 -4 15 36 32 -47 0
46 -4 15 36 -32 47 0
46 -4 15 -36 32 47 0
46 -4 15 -36 -32 -47 0
46 -4 -15 36 32 47 0
46 -4 -15 36 -32 -47 0
46 -4 -15 -36 32 -47 0
46 -4 -15 -36 -32 47 0
-46 4 15 36 32 -47 0
-46 4 15 36 -32 47 0
-46 4 15 -36 32 47 0
-46 4 15 -36 -32 -47 0
-46 4 -15 36 32 47 0
-46 4 -15 36 -32 -47 0
-46 4 -15 -36 32 -47 0
-46 4 -15 -36 -32 47 0
-46 -4 15 36 32 47 0
-46 -4 15 36 -32 -47 0
-46 -4 15 -36 32 -47 0
-46 -4 15 -36 -32 47 0
-46 -4 -15 36 32 -47 0
-46 -4 -15 36 -32 47 0
-46 -4 -15 -36 32 47 0
-46 -4 -15 -36 -32 -47 0
2 37 7 47 -38 0
2 37 7 -47 38 0
2 37 -7 47 38 0
2 37 -7 -47 -38 0
2 -37 7 47 38 0
2 -37 7 -47 -38 0
2 -37 -7 47 -38 0
2 -37 -7 -47 38 0
-2 37 7 47 38 0
-2 37 7 -47 -38 0
-2 37 -7 47 -38 0
-2 37 -7 -47 38 0
-2 -37 7 47 -38 0
-2 -37 7 -47 38 0
-2 -37 -7 47 38 0
-2 -37 -7 -47 -38 0
11 23 29 38 -35 0
11 23 29 -38 35 0
11 23 -29 38 35 0
11 23 -29 -38 -35 0
11 -23 29 38 35 0
11 -23 29 -38 -35 0
11 -23 -29 38 -35 0
11 -23 -29 -38 35 0
-11 23 29 38 35 0
-11 23 29 -38 -35 0
-11 23 -29 38 -35 0
-11 23 -29 -38 35 0
-11 -23 29 38 -35 0
-11 -23 29 -38 35 0
-11 -23 -29 38 35 0
-11 -23 -29 -38 -35 0
17 45 9 42 30 35 -44 0
17 45 9 42 30 -35 44 0
17 45 9 42 -30 35 44 0
17 45 9 42 -30 -35 -44 0
17 45 9 -42 30 35 44 0
17 45 9 -42 30 -35 -44 0
17 45 9 -42 -30 35 -44 0
17 45 9 -42 -30 -35 44 0
17 45 -9 42 30 35 44 0
17 45 -9 42 30 -35 -44 0
17 45 -9 42 -30 35 -44 0
17 45 -9 42 -30 -35 44 0
17 45 -9 -42 30 35 -44 0
17 45 -9 -42 30 -35 44 0
17 45 -9 -42 -30 35 44 0
17 45 -9 -42 -30 -35 -44 0
17 -45 9 42 30 35 44 0
17 -45 9 42 30 -35 -44 0
17 -45 9 42 -30 35 -44 0
17 -45 9 42 -30 -35 44 0
17 -45 9 -42 30 35 -44 0
17 -45 9 -42 30 -35 44 0
17 -45 9 -42 -30 35 44 0
17 -45 9 -42 -30 -35 -44 0
17 -45 -9 42 30 35 -44 0
17 -45 -9 42 30 -35 44 0
17 -45 -9 42 -30 35 44 0
17 -45 -9 42 -30 -35 -44 0
17 -45 -9 -42 30 35 44 0
17 -45 -9 -42 30 -35 -44 0
17 -45 -9 -42 -30 35 -44 0
17 -45 -9 -42 -30 -35 44 0
-17 45 9 42 30 35 44 0
-17 45 9 42 30 -35 -44 0
-17 45 9 42 -30 35 -44 0
-17 45 9 42 -30 -35 44 0
-17 45 9 -42 30 35 -44 0
-17 45 9 -42 30 -35 44 0
-17 45 9 -42 -30 35 44 0
-17 45 9 -42 -30 -35 -44 0
-17 45 -9 42 30 35 -44 0
-17 45 -9 42 30 -35 44 0
-17 45 -9 42 -30 35 44 0
-17 45 -9 42 -30 -35 -44 0
-17 45 -9 -42 30 35 44 0
-17 45 -9 -42 30 -35 -44 0
-17 45 -9 -42 -30 35 -44 0
-17 45 -9 -42 -30 -35 44 0
-17 -45 9 42 30 35 -44 0
-17 -45 9 42 30 -35 44 0
-17 -45 9 42 -30 35 44 0
-17 -45 9 42 -30 -35 -44 0
-17 -45 9 -42 30 35 44 0
-17 -45 9 -42 30 -35 -44 0
-17 -45 9 -42 -30 35 -44 0
-17 -45 9 -42 -30 -35 44 0
-17 -45 -9 42 30 35 44 0
-17 -45 -9 42 30 -35 -44 0
-17 -45 -9 42 -30 35 -44 0
-17 -45 -9 42 -30 -35 44 0
-17 -45 -9 -42 30 35 -44 0
-17 -45 -9 -42 30 -35 44 0
-17 -45 -9 -42 -30 35 44 0
-17 -45 -9 -42 -30 -35 -44 0
10 26 44 0
10 -26 -44 0
-10 26 -44 0
-10 -26 44 0
25 21 -31 0
25 -21 31 0
-25 21 31 0
-25 -21 -31 0
24 8 36 31 -41 0
24 8 36 -31 41 0
24 8 -36 31 41 0
24 8 -36 -31 -41 0
24 -8 36 31 41 0
24 -8 36 -31 -41 0
24 -8 -36 31 -41 0
24 -8 -36 -31 41 0
-24 8 36 31 41 0
-24 8 36 -31 -41 0
-24 8 -36 31 -41 0
-24 8 -36 -31 41 0
-24 -8 36 31 -41 0
-24 -8 36 -31 41 0
-24 -8 -36 31 41 0
-24 -8 -36 -31 -41 0
19 40 30 41 -6 0
19 40 30 -41 6 0
19 40 -30 41 6 0
19 40 -30 -41 -6 0
19 -40 30 41 6 0
19 -40 30 -41 -6 0
19 -40 -30 41 -6 0
19 -40 -30 -41 6 0
-19 40 30 41 6 0
-19 40 30 -41 -6 0
-19 40 -30 41 -6 0
-19 40 -30 -41 6 0
-19 -40 30 41 -6 0
-19 -40 30 -41 6 0
-19 -40 -30 41 6 0
-19 -40 -30 -41 -6 0
2 9 6 33 0
2 9 -6 -33 0
2 -9 6 -33 0
2 -9 -6 33 0
-2 9 6 -33 0
-2 9 -6 33 0
-2 -9 6 33 0
-2 -9 -6 -33 0
17 22 43 14 4 33 3 0
17 22 43 14 4 -33 -3 0
17 22 43 14 -4 33 -3 0
17 22 43 14 -4 -33 3 0
17 22 43 -14 4 33 -3 0
17 22 43 -14 4 -33 3 0
17 22 43 -14 -4 33 3 0
17 22 43 -14 -4 -33 -3 0
17 22 -43 14 4 33 -3 0
17 22 -43 14 4 -33 3 0
17 22 -43 14 -4 33 3 0
17 22 -43 14 -4 -33 -3 0
17 22 -43 -14 4 33 3 0
17 22 -43 -14 4 -33 -3 0
17 22 -43 -14 -4 33 -3 0
17 22 -43 -14 -4 -33 3 0
17 -22 43 14 4 33 -3 0
17 -22 43 14 4 -33 3 0
17 -22 43 14 -4 33 3 0
17 -22 43 14 -4 -33 -3 0
17 -22 43 -14 4 33 3 0
17 -22 43 -14 4 -33 -3 0
17 -22 43 -14 -4 33 -3 0
17 -22 43 -14 -4 -33 3 0
17 -22 -43 14 4 33 3 0
17 -22 -43 14 4 -33 -3 0
17 -22 -43 14 -4 33 -3 0
17 -22 -43 14 -4 -33 3 0
17 -22 -43 -14 4 33 -3 0
17 -22 -43 -14 4 -33 3 0
17 -22 -43 -14 -4 33 3 0
17 -22 -43 -14 -4 -33 -3 0
-17 22 43 14 4 33 -3 0
-17 22 43 14 4 -33 3 0
-17 22 43 14 -4 33 3 0
-17 22 43 14 -4 -33 -3 0
-17 22 43 -14 4 33 3 0
-17 22 43 -14 4 -33 -3 0
-17 22 43 -14 -4 33 -3 0
-17 22 43 -14 -4 -33 3 0
-17 22 -43 14 4 33 3 0
-17 22 -43 14 4 -33 -3 0
-17 22 -43 14 -4 33 -3 0
-17 22 -43 14 -4 -33 3 0
-17 22 -43 -14 4 33 -3 0
-17 22 -43 -14 4 -33 3 0
-17 22 -43 -14 -4 33 3 0
-17 22 -43 -14 -4 -33 -3 0
-17 -22 43 14 4 33 3 0
-17 -22 43 14 4 -33 -3 0
-17 -22 43 14 -4 33 -3 0
-17 -22 43 14 -4 -33 3 0
-17 -22 43 -14 4 33 -3 0
-17 -22 43 -14 4 -33 3 0
-17 -22 43 -14 -4 33 3 0
-17 -22 43 -14 -4 -33 -3 0
-17 -22 -43 14 4 33 -3 0
-17 -22 -43 14 4 -33 3 0
-17 -22 -43 14 -4 33 3 0
-17 -22 -43 14 -4 -33 -3 0
-17 -22 -43 -14 4 33 3 0
-17 -22 -43 -14 4 -33 -3 0
-17 -22 -43 -14 -4 33 -3 0
-17 -22 -43 -14 -4 -33 3 0
5 13 39 15 37 3 -27 0
5 13 39 15 37 -3 27 0
5 13 39 15 -37 3 27 0
5 13 39 15 -37 -3 -27 0
5 13 39 -15 37 3 27 0
5 13 39 -15 37 -3 -27 0
5 13 39 -15 -37 3 -27 0
5 13 39 -15 -37 -3 27 0
5 13 -39 15 37 3 27 0
5 13 -39 15 37 -3 -27 0
5 13 -39 15 -37 3 -27 0
5 13 -39 15 -37 -3 27 0
5 13 -39 -15 37 3 -27 0
5 13 -39 -15 37 -3 27 0
5 13 -39 -15 -37 3 27 0
5 13 -39 -15 -37 -3 -27 0
5 -13 39 15 37 3 27 0
5 -13 39 15 37 -3 -27 0
5 -13 39 15 -37 3 -27 0
5 -13 39 15 -37 -3 27 0
5 -13 39 -15 37 3 -27 0
5 -13 39 -15 37 -3 27 0
5 -13 39 -15 -37 3 27 0
5 -13 39 -15 -37 -3 -27 0
5 -13 -39 15 37 3 -27 0
5 -13 -39 15 37 -3 27 0
5 -13 -39 15 -37 3 27 0
5 -13 -39 15 -37 -3 -27 0
5 -13 -39 -15 37 3 27 0
5 -13 -39 -15 37 -3 -27 0
5 -13 -39 -15 -37 3 -27 0
5 -13 -39 -15 -37 -3 27 0
-5 13 39 15 37 3 27 0
-5 13 39 15 37 -3 -27 0
-5 13 39 15 -37 3 -27 0
-5 13 39 15 -37 -3 27 0
-5 13 39 -15 37 3 -27 0
-5 13 39 -15 37 -3 27 0
-5 13 39 -15 -37 3 27 0
-5 13 39 -15 -37 -3 -27 0
-5 13 -39 15 37 3 -27 0
-5 13 -39 15 37 -3 27 0
-5 13 -39 15 -37 3 27 0
-5 13 -39 15 -37 -3 -27 0
-5 13 -39 -15 37 3 27 0
-5 13 -39 -15 37 -3 -27 0
-5 13 -39 -15 -37 3 -27 0
-5 13 -39 -15 -37 -3 27 0
-5 -13 39 15 37 3 -27 0
-5 -13 39 15 37 -3 27 0
-5 -13 39 15 -37 3 27 0
-5 -13 39 15 -37 -3 -27 0
-5 -13 39 -15 37 3 27 0
-5 -13 39 -15 37 -3 -27 0
-5 -13 39 -15 -37 3 -27 0
-5 -13 39 -15 -37 -3 27 0
-5 -13 -39 15 37 3 27 0
-5 -13 -39 15 37 -3 -27 0
-5 -13 -39 15 -37 3 -27 0
-5 -13 -39 15 -37 -3 27 0
-5 -13 -39 -15 37 3 -27 0
-5 -13 -39 -15 37 -3 27 0
-5 -13 -39 -15 -37 3 27 0
-5 -13 -39 -15 -37 -3 -27 0
11 27 16 0
11 -27 -16 0
-11 27 -16 0
-11 -27 16 0
10 28 7 23 45 16 -12 0
10 28 7 23 45 -16 12 0
10 28 7 23 -45 16 12 0
10 28 7 23 -45 -16 -12 0
10 28 7 -23 45 16 12 0
10 28 7 -23 45 -16 -12 0
10 28 7 -23 -45 16 -12 0
10 28 7 -23 -45 -16 12 0
10 28 -7 23 45 16 12 0
10 28 -7 23 45 -16 -12 0
10 28 -7 23 -45 16 -12 0
10 28 -7 23 -45 -16 12 0
10 28 -7 -23 45 16 -12 0
10 28 -7 -23 45 -16 12 0
10 28 -7 -23 -45 16 12 0
10 28 -7 -23 -45 -16 -12 0
10 -28 7 23 45 16 12 0
10 -28 7 23 45 -16 -12 0
10 -28 7 23 -45 16 -12 0
10 -28 7 23 -45 -16 12 0
10 -28 7 -23 45 16 -12 0
10 -28 7 -23 45 -16 12 0
10 -28 7 -23 -45 16 12 0
10 -28 7 -23 -45 -16 -12 0
10 -28 -7 23 45 16 -12 0
10 -28 -7 23 45 -16 12 0
10 -28 -7 23 -45 16 12 0
10 -28 -7 23 -45 -16 -12 0
10 -28 -7 -23 45 16 12 0
10 -28 -7 -23 45 -16 -12 0
10 -28 -7 -23 -45 16 -12 0
10 -28 -7 -23 -45 -16 12 0
-10 28 7 23 45 16 12 0
-10 28 7 23 45 -16 -12 0
-10 28 7 23 -45 16 -12 0
-10 28 7 23 -45 -16 12 0
-10 28 7 -23 45 16 -12 0
-10 28 7 -23 45 -16 12 0
-10 28 7 -23 -45 16 12 0
-10 28 7 -23 -45 -16 -12 0
-10 28 -7 23 45 16 -12 0
-10 28 -7 23 45 -16 12 0
-10 28 -7 23 -45 16 12 0
-10 28 -7 23 -45 -16 -12 0
-10 28 -7 -23 45 16 12 0
-10 28 -7 -23 45 -16 -12 0
-10 28 -7 -23 -45 16 -12 0
-10 28 -7 -23 -45 -16 12 0
-10 -28 7 23 45 16 -12 0
-10 -28 7 23 45 -16 12 0
-10 -28 7 23 -45 16 12 0
-10 -28 7 23 -45 -16 -12 0
-10 -28 7 -23 45 16 12 0
-10 -28 7 -23 45 -16 -12 0
-10 -28 7 -23 -45 16 -12 0
-10 -28 7 -23 -45 -16 12 0
-10 -28 -7 23 45 16 12 0
-10 -28 -7 23 45 -16 -12 0
-10 -28 -7 23 -45 16 -12 0
-10 -28 -7 23 -45 -16 12 0
-10 -28 -7 -23 45 16 -12 0
-10 -28 -7 -23 45 -16 12 0
-10 -28 -7 -23 -45 16 12 0
-10 -28 -7 -23 -45 -16 -12 0
46 18 29 42 26 12 0
46 18 29 42 -26 -12 0
46 18 29 -42 26 -12 0
46 18 29 -42 -26 12 0
46 18 -29 42 26 -12 0
46 18 -29 42 -26 12 0
46 18 -29 -42 26 12 0
46 18 -29 -42 -26 -12 0
46 -18 29 42 26 -12 0
46 -18 29 42 -26 12 0
46 -18 29 -42 26 12 0
46 -18 29 -42 -26 -12 0
46 -18 -29 42 26 12 0
46 -18 -29 42 -26 -12 0
46 -18 -29 -42 26 -12 0
46 -18 -29 -42 -26 12 0
-46 18 29 42 26 -12 0
-46 18 29 42 -26 12 0
-46 18 29 -42 26 12 0
-46 18 29 -42 -26 -12 0
-46 18 -29 42 26 12 0
-46 18 -29 42 -26 -12 0
-46 18 -29 -42 26 -12 0
-46 18 -29 -42 -26 12 0
-46 -18 29 42 26 12 0
-46 -18 29 42 -26 -12 0
-46 -18 29 -42 26 -12 0
-46 -18 29 -42 -26 12 0
-46 -18 -29 42 26 -12 0
-46 -18 -29 42 -26 12 0
-46 -18 -29 -42 26 12 0
-46 -18 -29 -42 -26 -12 0
